
Gurobi 12.0.3 (linux64) logging started Fri Mar 27 16:32:55 2026

Set parameter LogFile to value "/home/solar-wind/WT_Solar_results_bigM100000_thread4/case24_ieee_rts_theta0.15_epsilon0.1_gurobi_seed30000_num_gen38_N_WDR250_load_scaling_factor1_EIFICA_T24_num_Solar5_num_WT10.txt"
Gurobi Optimizer version 12.0.3 build v12.0.3rc0 (linux64 - "Ubuntu 22.04.5 LTS")

CPU model: Intel(R) Xeon(R) Platinum 8378A CPU @ 3.00GHz, instruction set [SSE2|AVX|AVX2|AVX512]
Thread count: 32 physical cores, 64 logical processors, using up to 4 threads

Non-default parameters:
TimeLimit  14400
MIPGap  0.001
Seed  30000
Threads  4

Academic license 2721591 - for non-commercial use only - registered to fa___@mails.neu.edu.cn
Optimize a model with 751308 rows, 2075 columns and 63280408 nonzeros
Model fingerprint: 0x0a487117
Model has 912 quadratic objective terms
Coefficient statistics:
  Matrix range     [3e-07, 7e+01]
  Objective range  [2e+01, 6e+01]
  QObjective range [4e-03, 2e-02]
  Bounds range     [0e+00, 0e+00]
  RHS range        [6e-02, 1e+03]
Presolve removed 517343 rows and 0 columns (presolve time = 5s)...
Presolve removed 518217 rows and 0 columns
Presolve time: 6.63s
Presolved: 233091 rows, 2949 columns, 5097968 nonzeros
Presolved model has 912 quadratic objective terms
Elapsed ordering time = 7s
Elapsed ordering time = 22s
Ordering time: 43.89s
Elapsed ordering time = 46s
Elapsed ordering time = 54s
Elapsed ordering time = 55s
Elapsed ordering time = 62s
Elapsed ordering time = 70s
Elapsed ordering time = 70s
Elapsed ordering time = 78s
Elapsed ordering time = 80s
Elapsed ordering time = 85s
Ordering time: 91.52s

Barrier statistics:
 Dense cols : 1031
 AA' NZ     : 3.548e+08
 Factor NZ  : 9.582e+08 (roughly 8.0 GB of memory)
 Factor Ops : 7.806e+12 (roughly 40 seconds per iteration)
 Threads    : 4

                  Objective                Residual
Iter       Primal          Dual         Primal    Dual     Compl     Time
   0   5.56013425e+08 -2.97026947e+08  3.75e+04 9.90e+02  9.91e+05   234s
   1   5.20984674e+08 -2.65631698e+08  3.59e+04 9.48e+02  9.49e+05   234s
   2   5.14656105e+08 -3.41734252e+08  3.56e+04 9.40e+02  9.44e+05   234s
   3   4.76814317e+08 -4.53606999e+08  3.39e+04 8.93e+02  9.14e+05   235s
   4   4.31680153e+08 -5.24101469e+08  3.18e+04 8.34e+02  8.75e+05   235s
   5   3.88663364e+08 -5.34412561e+08  2.97e+04 7.76e+02  8.14e+05   235s
   6   3.42998723e+08 -6.01368139e+08  2.73e+04 7.10e+02  7.68e+05   236s
   7   2.96702740e+08 -6.88410279e+08  2.48e+04 6.39e+02  7.39e+05   236s
   8   2.65484032e+08 -7.09727661e+08  2.29e+04 5.89e+02  6.82e+05   236s
   9   2.36283878e+08 -7.30056228e+08  2.11e+04 5.40e+02  6.26e+05   236s
  10   2.11336172e+08 -7.48466277e+08  1.94e+04 4.97e+02  5.77e+05   236s
  11   1.92450907e+08 -7.90688288e+08  1.81e+04 4.62e+02  5.50e+05   237s
  12   1.65237747e+08 -8.18924310e+08  1.60e+04 4.11e+02  4.90e+05   237s
  13   1.43994145e+08 -8.37206879e+08  1.44e+04 3.68e+02  4.41e+05   237s
  14   1.26553690e+08 -8.56607221e+08  1.31e+04 3.32e+02  3.98e+05   237s
  15   1.13777028e+08 -8.76022314e+08  1.20e+04 3.04e+02  3.65e+05   237s
  16   9.71687525e+07 -9.04151468e+08  1.06e+04 2.66e+02  3.20e+05   237s
  17   8.16206603e+07 -9.30795193e+08  9.21e+03 2.28e+02  2.77e+05   237s
  18   6.95152149e+07 -9.58627627e+08  8.06e+03 1.98e+02  2.41e+05   238s
  19   5.87490585e+07 -9.83621305e+08  7.00e+03 1.71e+02  2.08e+05   238s
  20   5.02862614e+07 -1.00465948e+09  6.13e+03 1.48e+02  1.82e+05   238s
  21   4.26682324e+07 -1.02386119e+09  5.31e+03 1.28e+02  1.57e+05   238s
  22   3.33722732e+07 -1.04391504e+09  4.27e+03 1.02e+02  1.26e+05   238s
  23   2.67102159e+07 -1.05166360e+09  3.47e+03 8.23e+01  1.03e+05   238s
  24   1.88209883e+07 -1.04800128e+09  2.99e+03 5.87e+01  7.47e+04   239s
  25   1.60434119e+07 -1.03658536e+09  2.81e+03 5.02e+01  6.41e+04   239s
  26   1.19232024e+07 -1.00911381e+09  2.52e+03 3.73e+01  4.82e+04   239s
  27   3.44725331e+06 -8.78725901e+08  1.45e+03 1.01e+01  1.83e+04   239s
  28   2.95257146e+06 -8.04879625e+08  1.20e+03 8.43e+00  1.54e+04   239s
  29   2.62628336e+06 -7.51082340e+08  1.04e+03 7.33e+00  1.34e+04   239s
  30   2.23306800e+06 -6.78874077e+08  8.43e+02 6.00e+00  1.11e+04   239s
  31   1.97176982e+06 -6.54447732e+08  7.08e+02 5.10e+00  9.87e+03   240s
  32   1.54763378e+06 -5.57870875e+08  4.99e+02 3.62e+00  7.14e+03   240s
  33   1.21499992e+06 -5.58821688e+08  3.16e+02 2.36e+00  5.73e+03   240s
  34   1.04801947e+06 -4.80148361e+08  2.32e+02 1.74e+00  4.31e+03   240s
  35   8.85536391e+05 -4.02001992e+08  1.39e+02 1.06e+00  2.95e+03   240s
  36   8.05852547e+05 -3.40113928e+08  9.41e+01 7.18e-01  2.19e+03   241s
  37   7.41133002e+05 -2.75974455e+08  5.81e+01 4.38e-01  1.57e+03   241s
  38   7.20921996e+05 -2.38542573e+08  4.34e+01 3.29e-01  1.28e+03   242s
  39   7.06631733e+05 -2.18690619e+08  3.32e+01 2.50e-01  1.12e+03   242s
  40   6.99199248e+05 -1.93539689e+08  2.68e+01 2.01e-01  9.63e+02   243s
  41   6.95748333e+05 -1.78970728e+08  2.32e+01 1.74e-01  8.76e+02   244s
  42   6.91590036e+05 -1.55106828e+08  1.81e+01 1.34e-01  7.40e+02   245s
  43   6.89312078e+05 -1.34549864e+08  1.38e+01 1.02e-01  6.30e+02   245s
  44   6.89073531e+05 -1.09041467e+08  1.02e+01 7.45e-02  5.04e+02   247s
  45   6.89143203e+05 -9.77349613e+07  7.67e+00 5.60e-02  4.50e+02   249s
  46   6.88005917e+05 -2.57196147e+07  5.98e-01 8.55e+00  1.12e+02   269s
  47   6.85796811e+05 -3.74646838e+04  1.44e-02 1.71e+00  3.05e+00   288s
  48   6.34831129e+05  4.69337442e+05  5.48e-03 7.17e-02  6.99e-01   308s
  49   6.05384440e+05  5.47718919e+05  8.71e-04 1.98e-02  2.43e-01   329s
  50   5.98444820e+05  5.70456428e+05  3.19e-04 2.05e-03  1.18e-01   352s
  51   5.95614777e+05  5.84827245e+05  4.71e-05 3.02e-04  4.55e-02   389s
  52   5.94718026e+05  5.89292617e+05  1.34e-05 8.63e-05  2.29e-02   426s
  53   5.94136846e+05  5.92125872e+05  7.24e-07 4.65e-06  8.49e-03   463s
  54   5.93956654e+05  5.92970118e+05  3.54e-08 2.29e-07  4.16e-03   501s
  55   5.93849362e+05  5.93501330e+05  1.63e-09 2.83e-11  1.47e-03   538s
  56   5.93812159e+05  5.93681986e+05  8.08e-10 3.11e-12  5.49e-04   573s
  57   5.93794114e+05  5.93769321e+05  2.91e-10 1.65e-11  1.05e-04   609s
  58   5.93791076e+05  5.93783876e+05  2.49e-09 2.57e-11  3.04e-05   645s
  59   5.93790221e+05  5.93787953e+05  7.16e-09 2.09e-12  9.58e-06   683s
  60   5.93789833e+05  5.93789824e+05  2.50e-09 7.90e-12  3.94e-08   719s
  61   5.93789832e+05  5.93789830e+05  2.63e-07 3.55e-10  6.74e-09   754s

Barrier solved model in 61 iterations and 754.15 seconds (916.33 work units)
Optimal objective 5.93789832e+05

